c User generated cnf file
p cnf 8 33
-4 2 8 0 
-8 5 3 0 
-3 2 6 0 
-5 2 6 0 
4 -1 8 0 
6 6 -4 0 
1 -8 1 0 
3 -2 7 0 
7 3 -5 0 
2 -3 8 0 
8 1 -3 0 
-6 3 8 0 
4 -6 1 0 
1 2 -8 0 
-7 3 2 0 
3 7 -1 0 
-4 1 1 0 
3 -3 2 0 
-1 7 7 0 
8 2 -2 0 
-6 8 1 0 
-7 6 2 0 
5 -5 7 0 
6 -8 3 0 
3 5 -6 0 
-3 7 2 0 
4 -8 2 0 
7 -2 1 0 
1 -3 7 0 
4 8 -3 0 
1 -3 2 0 
-3 5 7 0 
5 -1 7 0 
